unsat
(:binary-propagations  6
 :conflicts            1
 :final-checks         1
 :max-generation       1
 :max-memory           22.91
 :memory               20.75
 :mk-bool-var          250
 :mk-clause            92
 :mk-clause-binary     317
 :num-allocs           3938367
 :num-checks           1
 :propagations         6
 :quant-instantiations 50
 :restarts             1
 :rlimit-count         34554
 :time                 0.01)
